4 4 100 1 2
0 700
 1 40.00 50.00 0.00 0.00 0.00 0 0 0 3390
 2 52.00 75.00 90.00 10.00 20.00 1 1 1 302 479
 3 45.00 70.00 90.00 30.00 10.00 1 1 1 157 428
 4 62.00 69.00 90.00 10.00 10.00 1 1 1 1138 1355
 5 60.00 66.00 90.00 10.00 10.00 1 1 1 1247 1434
 6 42.00 65.00 90.00 10.00 20.00 1 1 1 15 208
 7 16.00 42.00 90.00 20.00 30.00 1 1 1 209 944
 8 58.00 70.00 90.00 20.00 20.00 1 1 1 1059 1246
 9 34.00 60.00 90.00 20.00 10.00 1 1 1 2035 3288
 10 28.00 70.00 90.00 10.00 30.00 1 1 1 2090 3271
 11 35.00 66.00 90.00 10.00 10.00 1 1 1 2311 3283
 12 35.00 69.00 90.00 10.00 20.00 1 1 1 2428 3127
 13 25.00 85.00 90.00 20.00 10.00 1 1 1 1772 2625
 14 22.00 75.00 90.00 30.00 20.00 1 1 1 2135 2834
 15 22.00 85.00 90.00 10.00 10.00 1 1 1 1586 2625
 16 20.00 80.00 90.00 40.00 10.00 1 1 1 1858 2733
 17 20.00 85.00 90.00 40.00 20.00 1 1 1 1512 2515
 18 18.00 75.00 90.00 20.00 20.00 1 1 1 1895 2886
 19 15.00 75.00 90.00 20.00 10.00 1 1 1 1299 2344
 20 15.00 80.00 90.00 10.00 10.00 1 1 1 1461 2372
 21 30.00 50.00 90.00 10.00 10.00 1 1 1 10 963
 22 30.00 56.00 90.00 20.00 20.00 1 1 1 2062 3288
 23 28.00 52.00 90.00 20.00 30.00 1 1 1 12 752
 24 14.00 66.00 90.00 10.00 10.00 1 1 1 1316 2129
 25 25.00 50.00 90.00 10.00 40.00 1 1 1 15 532
 26 22.00 66.00 90.00 40.00 10.00 1 1 1 2177 2990
 27 8.00 62.00 90.00 10.00 10.00 1 1 1 1036 2213
 28 23.00 52.00 90.00 10.00 10.00 1 1 1 17 602
 29 4.00 55.00 90.00 20.00 20.00 1 1 1 1010 2043
 30 20.00 50.00 90.00 10.00 10.00 1 1 1 20 948
 31 20.00 55.00 90.00 10.00 30.00 1 1 1 63 702
 32 10.00 35.00 90.00 20.00 10.00 1 1 1 309 1412
 33 10.00 40.00 90.00 30.00 30.00 1 1 1 336 1009
 34 8.00 40.00 90.00 40.00 10.00 1 1 1 234 1295
 35 8.00 45.00 90.00 20.00 10.00 1 1 1 954 1897
 36 5.00 35.00 90.00 10.00 10.00 1 1 1 377 1534
 37 5.00 45.00 90.00 10.00 10.00 1 1 1 819 1846
 38 2.00 40.00 90.00 20.00 10.00 1 1 1 494 1607
 39 0.00 40.00 90.00 30.00 20.00 1 1 1 637 1648
 40 0.00 45.00 90.00 20.00 10.00 1 1 1 834 1641
 41 36.00 18.00 90.00 10.00 40.00 1 1 1 1468 2329
 42 35.00 32.00 90.00 10.00 10.00 1 1 1 2480 3195
 43 33.00 32.00 90.00 20.00 40.00 1 1 1 2421 3070
 44 33.00 35.00 90.00 10.00 10.00 1 1 1 2368 2937
 45 32.00 20.00 90.00 10.00 30.00 1 1 1 1621 2364
 46 30.00 30.00 90.00 10.00 30.00 1 1 1 1805 2564
 47 34.00 25.00 90.00 30.00 30.00 1 1 1 1782 2395
 48 30.00 35.00 90.00 10.00 10.00 1 1 1 2242 2877
 49 36.00 40.00 90.00 10.00 20.00 1 1 1 2605 3266
 50 48.00 20.00 90.00 10.00 10.00 1 1 1 812 1281
 51 26.00 32.00 90.00 10.00 10.00 1 1 1 1842 2901
 52 25.00 30.00 90.00 10.00 10.00 1 1 1 1883 2676
 53 25.00 35.00 90.00 10.00 10.00 1 1 1 2070 2859
 54 44.00 5.00 90.00 20.00 40.00 1 1 1 1078 1593
 55 42.00 10.00 90.00 40.00 10.00 1 1 1 998 1481
 56 42.00 15.00 90.00 10.00 10.00 1 1 1 897 1392
 57 40.00 5.00 90.00 30.00 10.00 1 1 1 1083 1776
 58 38.00 15.00 90.00 40.00 10.00 1 1 1 1426 2183
 59 38.00 5.00 90.00 30.00 30.00 1 1 1 1133 1910
 60 38.00 10.00 90.00 10.00 10.00 1 1 1 1392 2027
 61 35.00 5.00 90.00 20.00 40.00 1 1 1 1180 2049
 62 50.00 30.00 90.00 10.00 10.00 1 1 1 223 738
 63 50.00 35.00 90.00 20.00 30.00 1 1 1 18 474
 64 50.00 40.00 90.00 50.00 10.00 1 1 1 14 360
 65 48.00 30.00 90.00 10.00 10.00 1 1 1 246 899
 66 44.00 25.00 90.00 10.00 40.00 1 1 1 704 1197
 67 47.00 35.00 90.00 10.00 20.00 1 1 1 393 942
 68 47.00 40.00 90.00 10.00 10.00 1 1 1 12 424
 69 42.00 30.00 90.00 10.00 10.00 1 1 1 641 1070
 70 45.00 35.00 90.00 10.00 20.00 1 1 1 534 985
 71 95.00 30.00 90.00 30.00 20.00 1 1 1 2119 2682
 72 95.00 35.00 90.00 20.00 10.00 1 1 1 2192 2419
 73 53.00 30.00 90.00 10.00 10.00 1 1 1 131 644
 74 92.00 30.00 90.00 10.00 20.00 1 1 1 2169 2818
 75 53.00 35.00 90.00 50.00 20.00 1 1 1 87 498
 76 45.00 65.00 90.00 20.00 10.00 1 1 1 49 346
 77 90.00 35.00 90.00 10.00 10.00 1 1 1 2106 2315
 78 72.00 45.00 90.00 10.00 30.00 1 1 1 2701 3258
 79 78.00 40.00 90.00 20.00 20.00 1 1 1 2599 3164
 80 87.00 30.00 90.00 10.00 20.00 1 1 1 2505 2870
 81 85.00 25.00 90.00 10.00 40.00 1 1 1 2369 2816
 82 85.00 35.00 90.00 30.00 20.00 1 1 1 2563 3002
 83 75.00 55.00 90.00 20.00 10.00 1 1 1 1894 2115
 84 72.00 55.00 90.00 10.00 30.00 1 1 1 1751 2072
 85 70.00 58.00 90.00 20.00 10.00 1 1 1 1617 1824
 86 86.00 46.00 90.00 30.00 20.00 1 1 1 1969 2248
 87 66.00 55.00 90.00 10.00 20.00 1 1 1 1710 1921
 88 64.00 46.00 90.00 20.00 10.00 1 1 1 2976 3275
 89 65.00 60.00 90.00 30.00 10.00 1 1 1 1482 1769
 90 56.00 64.00 90.00 10.00 20.00 1 1 1 1275 1594
 91 60.00 55.00 90.00 10.00 20.00 1 1 1 2789 3279
 92 60.00 60.00 90.00 10.00 10.00 1 1 1 1440 1621
 93 67.00 85.00 90.00 20.00 50.00 1 1 1 646 901
 94 42.00 58.00 90.00 40.00 20.00 1 1 1 8 258
 95 65.00 82.00 90.00 10.00 10.00 1 1 1 708 1027
 96 62.00 80.00 90.00 30.00 30.00 1 1 1 852 1069
 97 62.00 40.00 90.00 10.00 20.00 1 1 1 2713 3275
 98 60.00 85.00 90.00 30.00 20.00 1 1 1 537 816
 99 58.00 75.00 90.00 20.00 10.00 1 1 1 948 1167
 100 55.00 80.00 90.00 10.00 10.00 1 1 1 379 594
 101 55.00 85.00 90.00 20.00 50.00 1 1 1 477 686
